p cnf 350 2808
1 2 3 4 5 6 7 0
8 9 10 11 12 13 14 0
15 16 17 18 19 20 21 0
22 23 24 25 26 27 28 0
29 30 31 32 33 34 35 0
36 37 38 39 40 41 42 0
43 44 45 46 47 48 49 0
50 51 52 53 54 55 56 0
57 58 59 60 61 62 63 0
64 65 66 67 68 69 70 0
71 72 73 74 75 76 77 0
78 79 80 81 82 83 84 0
85 86 87 88 89 90 91 0
92 93 94 95 96 97 98 0
99 100 101 102 103 104 105 0
106 107 108 109 110 111 112 0
113 114 115 116 117 118 119 0
120 121 122 123 124 125 126 0
127 128 129 130 131 132 133 0
134 135 136 137 138 139 140 0
141 142 143 144 145 146 147 0
148 149 150 151 152 153 154 0
155 156 157 158 159 160 161 0
162 163 164 165 166 167 168 0
169 170 171 172 173 174 175 0
176 177 178 179 180 181 182 0
183 184 185 186 187 188 189 0
190 191 192 193 194 195 196 0
197 198 199 200 201 202 203 0
204 205 206 207 208 209 210 0
211 212 213 214 215 216 217 0
218 219 220 221 222 223 224 0
225 226 227 228 229 230 231 0
232 233 234 235 236 237 238 0
239 240 241 242 243 244 245 0
246 247 248 249 250 251 252 0
253 254 255 256 257 258 259 0
260 261 262 263 264 265 266 0
267 268 269 270 271 272 273 0
274 275 276 277 278 279 280 0
281 282 283 284 285 286 287 0
288 289 290 291 292 293 294 0
295 296 297 298 299 300 301 0
302 303 304 305 306 307 308 0
309 310 311 312 313 314 315 0
316 317 318 319 320 321 322 0
323 324 325 326 327 328 329 0
330 331 332 333 334 335 336 0
337 338 339 340 341 342 343 0
344 345 346 347 348 349 350 0
-1 -2 0
-1 -3 0
-1 -4 0
-1 -5 0
-1 -6 0
-1 -7 0
-2 -3 0
-2 -4 0
-2 -5 0
-2 -6 0
-2 -7 0
-3 -4 0
-3 -5 0
-3 -6 0
-3 -7 0
-4 -5 0
-4 -6 0
-4 -7 0
-5 -6 0
-5 -7 0
-6 -7 0
-8 -9 0
-8 -10 0
-8 -11 0
-8 -12 0
-8 -13 0
-8 -14 0
-9 -10 0
-9 -11 0
-9 -12 0
-9 -13 0
-9 -14 0
-10 -11 0
-10 -12 0
-10 -13 0
-10 -14 0
-11 -12 0
-11 -13 0
-11 -14 0
-12 -13 0
-12 -14 0
-13 -14 0
-15 -16 0
-15 -17 0
-15 -18 0
-15 -19 0
-15 -20 0
-15 -21 0
-16 -17 0
-16 -18 0
-16 -19 0
-16 -20 0
-16 -21 0
-17 -18 0
-17 -19 0
-17 -20 0
-17 -21 0
-18 -19 0
-18 -20 0
-18 -21 0
-19 -20 0
-19 -21 0
-20 -21 0
-22 -23 0
-22 -24 0
-22 -25 0
-22 -26 0
-22 -27 0
-22 -28 0
-23 -24 0
-23 -25 0
-23 -26 0
-23 -27 0
-23 -28 0
-24 -25 0
-24 -26 0
-24 -27 0
-24 -28 0
-25 -26 0
-25 -27 0
-25 -28 0
-26 -27 0
-26 -28 0
-27 -28 0
-29 -30 0
-29 -31 0
-29 -32 0
-29 -33 0
-29 -34 0
-29 -35 0
-30 -31 0
-30 -32 0
-30 -33 0
-30 -34 0
-30 -35 0
-31 -32 0
-31 -33 0
-31 -34 0
-31 -35 0
-32 -33 0
-32 -34 0
-32 -35 0
-33 -34 0
-33 -35 0
-34 -35 0
-36 -37 0
-36 -38 0
-36 -39 0
-36 -40 0
-36 -41 0
-36 -42 0
-37 -38 0
-37 -39 0
-37 -40 0
-37 -41 0
-37 -42 0
-38 -39 0
-38 -40 0
-38 -41 0
-38 -42 0
-39 -40 0
-39 -41 0
-39 -42 0
-40 -41 0
-40 -42 0
-41 -42 0
-43 -44 0
-43 -45 0
-43 -46 0
-43 -47 0
-43 -48 0
-43 -49 0
-44 -45 0
-44 -46 0
-44 -47 0
-44 -48 0
-44 -49 0
-45 -46 0
-45 -47 0
-45 -48 0
-45 -49 0
-46 -47 0
-46 -48 0
-46 -49 0
-47 -48 0
-47 -49 0
-48 -49 0
-50 -51 0
-50 -52 0
-50 -53 0
-50 -54 0
-50 -55 0
-50 -56 0
-51 -52 0
-51 -53 0
-51 -54 0
-51 -55 0
-51 -56 0
-52 -53 0
-52 -54 0
-52 -55 0
-52 -56 0
-53 -54 0
-53 -55 0
-53 -56 0
-54 -55 0
-54 -56 0
-55 -56 0
-57 -58 0
-57 -59 0
-57 -60 0
-57 -61 0
-57 -62 0
-57 -63 0
-58 -59 0
-58 -60 0
-58 -61 0
-58 -62 0
-58 -63 0
-59 -60 0
-59 -61 0
-59 -62 0
-59 -63 0
-60 -61 0
-60 -62 0
-60 -63 0
-61 -62 0
-61 -63 0
-62 -63 0
-64 -65 0
-64 -66 0
-64 -67 0
-64 -68 0
-64 -69 0
-64 -70 0
-65 -66 0
-65 -67 0
-65 -68 0
-65 -69 0
-65 -70 0
-66 -67 0
-66 -68 0
-66 -69 0
-66 -70 0
-67 -68 0
-67 -69 0
-67 -70 0
-68 -69 0
-68 -70 0
-69 -70 0
-71 -72 0
-71 -73 0
-71 -74 0
-71 -75 0
-71 -76 0
-71 -77 0
-72 -73 0
-72 -74 0
-72 -75 0
-72 -76 0
-72 -77 0
-73 -74 0
-73 -75 0
-73 -76 0
-73 -77 0
-74 -75 0
-74 -76 0
-74 -77 0
-75 -76 0
-75 -77 0
-76 -77 0
-78 -79 0
-78 -80 0
-78 -81 0
-78 -82 0
-78 -83 0
-78 -84 0
-79 -80 0
-79 -81 0
-79 -82 0
-79 -83 0
-79 -84 0
-80 -81 0
-80 -82 0
-80 -83 0
-80 -84 0
-81 -82 0
-81 -83 0
-81 -84 0
-82 -83 0
-82 -84 0
-83 -84 0
-85 -86 0
-85 -87 0
-85 -88 0
-85 -89 0
-85 -90 0
-85 -91 0
-86 -87 0
-86 -88 0
-86 -89 0
-86 -90 0
-86 -91 0
-87 -88 0
-87 -89 0
-87 -90 0
-87 -91 0
-88 -89 0
-88 -90 0
-88 -91 0
-89 -90 0
-89 -91 0
-90 -91 0
-92 -93 0
-92 -94 0
-92 -95 0
-92 -96 0
-92 -97 0
-92 -98 0
-93 -94 0
-93 -95 0
-93 -96 0
-93 -97 0
-93 -98 0
-94 -95 0
-94 -96 0
-94 -97 0
-94 -98 0
-95 -96 0
-95 -97 0
-95 -98 0
-96 -97 0
-96 -98 0
-97 -98 0
-99 -100 0
-99 -101 0
-99 -102 0
-99 -103 0
-99 -104 0
-99 -105 0
-100 -101 0
-100 -102 0
-100 -103 0
-100 -104 0
-100 -105 0
-101 -102 0
-101 -103 0
-101 -104 0
-101 -105 0
-102 -103 0
-102 -104 0
-102 -105 0
-103 -104 0
-103 -105 0
-104 -105 0
-106 -107 0
-106 -108 0
-106 -109 0
-106 -110 0
-106 -111 0
-106 -112 0
-107 -108 0
-107 -109 0
-107 -110 0
-107 -111 0
-107 -112 0
-108 -109 0
-108 -110 0
-108 -111 0
-108 -112 0
-109 -110 0
-109 -111 0
-109 -112 0
-110 -111 0
-110 -112 0
-111 -112 0
-113 -114 0
-113 -115 0
-113 -116 0
-113 -117 0
-113 -118 0
-113 -119 0
-114 -115 0
-114 -116 0
-114 -117 0
-114 -118 0
-114 -119 0
-115 -116 0
-115 -117 0
-115 -118 0
-115 -119 0
-116 -117 0
-116 -118 0
-116 -119 0
-117 -118 0
-117 -119 0
-118 -119 0
-120 -121 0
-120 -122 0
-120 -123 0
-120 -124 0
-120 -125 0
-120 -126 0
-121 -122 0
-121 -123 0
-121 -124 0
-121 -125 0
-121 -126 0
-122 -123 0
-122 -124 0
-122 -125 0
-122 -126 0
-123 -124 0
-123 -125 0
-123 -126 0
-124 -125 0
-124 -126 0
-125 -126 0
-127 -128 0
-127 -129 0
-127 -130 0
-127 -131 0
-127 -132 0
-127 -133 0
-128 -129 0
-128 -130 0
-128 -131 0
-128 -132 0
-128 -133 0
-129 -130 0
-129 -131 0
-129 -132 0
-129 -133 0
-130 -131 0
-130 -132 0
-130 -133 0
-131 -132 0
-131 -133 0
-132 -133 0
-134 -135 0
-134 -136 0
-134 -137 0
-134 -138 0
-134 -139 0
-134 -140 0
-135 -136 0
-135 -137 0
-135 -138 0
-135 -139 0
-135 -140 0
-136 -137 0
-136 -138 0
-136 -139 0
-136 -140 0
-137 -138 0
-137 -139 0
-137 -140 0
-138 -139 0
-138 -140 0
-139 -140 0
-141 -142 0
-141 -143 0
-141 -144 0
-141 -145 0
-141 -146 0
-141 -147 0
-142 -143 0
-142 -144 0
-142 -145 0
-142 -146 0
-142 -147 0
-143 -144 0
-143 -145 0
-143 -146 0
-143 -147 0
-144 -145 0
-144 -146 0
-144 -147 0
-145 -146 0
-145 -147 0
-146 -147 0
-148 -149 0
-148 -150 0
-148 -151 0
-148 -152 0
-148 -153 0
-148 -154 0
-149 -150 0
-149 -151 0
-149 -152 0
-149 -153 0
-149 -154 0
-150 -151 0
-150 -152 0
-150 -153 0
-150 -154 0
-151 -152 0
-151 -153 0
-151 -154 0
-152 -153 0
-152 -154 0
-153 -154 0
-155 -156 0
-155 -157 0
-155 -158 0
-155 -159 0
-155 -160 0
-155 -161 0
-156 -157 0
-156 -158 0
-156 -159 0
-156 -160 0
-156 -161 0
-157 -158 0
-157 -159 0
-157 -160 0
-157 -161 0
-158 -159 0
-158 -160 0
-158 -161 0
-159 -160 0
-159 -161 0
-160 -161 0
-162 -163 0
-162 -164 0
-162 -165 0
-162 -166 0
-162 -167 0
-162 -168 0
-163 -164 0
-163 -165 0
-163 -166 0
-163 -167 0
-163 -168 0
-164 -165 0
-164 -166 0
-164 -167 0
-164 -168 0
-165 -166 0
-165 -167 0
-165 -168 0
-166 -167 0
-166 -168 0
-167 -168 0
-169 -170 0
-169 -171 0
-169 -172 0
-169 -173 0
-169 -174 0
-169 -175 0
-170 -171 0
-170 -172 0
-170 -173 0
-170 -174 0
-170 -175 0
-171 -172 0
-171 -173 0
-171 -174 0
-171 -175 0
-172 -173 0
-172 -174 0
-172 -175 0
-173 -174 0
-173 -175 0
-174 -175 0
-176 -177 0
-176 -178 0
-176 -179 0
-176 -180 0
-176 -181 0
-176 -182 0
-177 -178 0
-177 -179 0
-177 -180 0
-177 -181 0
-177 -182 0
-178 -179 0
-178 -180 0
-178 -181 0
-178 -182 0
-179 -180 0
-179 -181 0
-179 -182 0
-180 -181 0
-180 -182 0
-181 -182 0
-183 -184 0
-183 -185 0
-183 -186 0
-183 -187 0
-183 -188 0
-183 -189 0
-184 -185 0
-184 -186 0
-184 -187 0
-184 -188 0
-184 -189 0
-185 -186 0
-185 -187 0
-185 -188 0
-185 -189 0
-186 -187 0
-186 -188 0
-186 -189 0
-187 -188 0
-187 -189 0
-188 -189 0
-190 -191 0
-190 -192 0
-190 -193 0
-190 -194 0
-190 -195 0
-190 -196 0
-191 -192 0
-191 -193 0
-191 -194 0
-191 -195 0
-191 -196 0
-192 -193 0
-192 -194 0
-192 -195 0
-192 -196 0
-193 -194 0
-193 -195 0
-193 -196 0
-194 -195 0
-194 -196 0
-195 -196 0
-197 -198 0
-197 -199 0
-197 -200 0
-197 -201 0
-197 -202 0
-197 -203 0
-198 -199 0
-198 -200 0
-198 -201 0
-198 -202 0
-198 -203 0
-199 -200 0
-199 -201 0
-199 -202 0
-199 -203 0
-200 -201 0
-200 -202 0
-200 -203 0
-201 -202 0
-201 -203 0
-202 -203 0
-204 -205 0
-204 -206 0
-204 -207 0
-204 -208 0
-204 -209 0
-204 -210 0
-205 -206 0
-205 -207 0
-205 -208 0
-205 -209 0
-205 -210 0
-206 -207 0
-206 -208 0
-206 -209 0
-206 -210 0
-207 -208 0
-207 -209 0
-207 -210 0
-208 -209 0
-208 -210 0
-209 -210 0
-211 -212 0
-211 -213 0
-211 -214 0
-211 -215 0
-211 -216 0
-211 -217 0
-212 -213 0
-212 -214 0
-212 -215 0
-212 -216 0
-212 -217 0
-213 -214 0
-213 -215 0
-213 -216 0
-213 -217 0
-214 -215 0
-214 -216 0
-214 -217 0
-215 -216 0
-215 -217 0
-216 -217 0
-218 -219 0
-218 -220 0
-218 -221 0
-218 -222 0
-218 -223 0
-218 -224 0
-219 -220 0
-219 -221 0
-219 -222 0
-219 -223 0
-219 -224 0
-220 -221 0
-220 -222 0
-220 -223 0
-220 -224 0
-221 -222 0
-221 -223 0
-221 -224 0
-222 -223 0
-222 -224 0
-223 -224 0
-225 -226 0
-225 -227 0
-225 -228 0
-225 -229 0
-225 -230 0
-225 -231 0
-226 -227 0
-226 -228 0
-226 -229 0
-226 -230 0
-226 -231 0
-227 -228 0
-227 -229 0
-227 -230 0
-227 -231 0
-228 -229 0
-228 -230 0
-228 -231 0
-229 -230 0
-229 -231 0
-230 -231 0
-232 -233 0
-232 -234 0
-232 -235 0
-232 -236 0
-232 -237 0
-232 -238 0
-233 -234 0
-233 -235 0
-233 -236 0
-233 -237 0
-233 -238 0
-234 -235 0
-234 -236 0
-234 -237 0
-234 -238 0
-235 -236 0
-235 -237 0
-235 -238 0
-236 -237 0
-236 -238 0
-237 -238 0
-239 -240 0
-239 -241 0
-239 -242 0
-239 -243 0
-239 -244 0
-239 -245 0
-240 -241 0
-240 -242 0
-240 -243 0
-240 -244 0
-240 -245 0
-241 -242 0
-241 -243 0
-241 -244 0
-241 -245 0
-242 -243 0
-242 -244 0
-242 -245 0
-243 -244 0
-243 -245 0
-244 -245 0
-246 -247 0
-246 -248 0
-246 -249 0
-246 -250 0
-246 -251 0
-246 -252 0
-247 -248 0
-247 -249 0
-247 -250 0
-247 -251 0
-247 -252 0
-248 -249 0
-248 -250 0
-248 -251 0
-248 -252 0
-249 -250 0
-249 -251 0
-249 -252 0
-250 -251 0
-250 -252 0
-251 -252 0
-253 -254 0
-253 -255 0
-253 -256 0
-253 -257 0
-253 -258 0
-253 -259 0
-254 -255 0
-254 -256 0
-254 -257 0
-254 -258 0
-254 -259 0
-255 -256 0
-255 -257 0
-255 -258 0
-255 -259 0
-256 -257 0
-256 -258 0
-256 -259 0
-257 -258 0
-257 -259 0
-258 -259 0
-260 -261 0
-260 -262 0
-260 -263 0
-260 -264 0
-260 -265 0
-260 -266 0
-261 -262 0
-261 -263 0
-261 -264 0
-261 -265 0
-261 -266 0
-262 -263 0
-262 -264 0
-262 -265 0
-262 -266 0
-263 -264 0
-263 -265 0
-263 -266 0
-264 -265 0
-264 -266 0
-265 -266 0
-267 -268 0
-267 -269 0
-267 -270 0
-267 -271 0
-267 -272 0
-267 -273 0
-268 -269 0
-268 -270 0
-268 -271 0
-268 -272 0
-268 -273 0
-269 -270 0
-269 -271 0
-269 -272 0
-269 -273 0
-270 -271 0
-270 -272 0
-270 -273 0
-271 -272 0
-271 -273 0
-272 -273 0
-274 -275 0
-274 -276 0
-274 -277 0
-274 -278 0
-274 -279 0
-274 -280 0
-275 -276 0
-275 -277 0
-275 -278 0
-275 -279 0
-275 -280 0
-276 -277 0
-276 -278 0
-276 -279 0
-276 -280 0
-277 -278 0
-277 -279 0
-277 -280 0
-278 -279 0
-278 -280 0
-279 -280 0
-281 -282 0
-281 -283 0
-281 -284 0
-281 -285 0
-281 -286 0
-281 -287 0
-282 -283 0
-282 -284 0
-282 -285 0
-282 -286 0
-282 -287 0
-283 -284 0
-283 -285 0
-283 -286 0
-283 -287 0
-284 -285 0
-284 -286 0
-284 -287 0
-285 -286 0
-285 -287 0
-286 -287 0
-288 -289 0
-288 -290 0
-288 -291 0
-288 -292 0
-288 -293 0
-288 -294 0
-289 -290 0
-289 -291 0
-289 -292 0
-289 -293 0
-289 -294 0
-290 -291 0
-290 -292 0
-290 -293 0
-290 -294 0
-291 -292 0
-291 -293 0
-291 -294 0
-292 -293 0
-292 -294 0
-293 -294 0
-295 -296 0
-295 -297 0
-295 -298 0
-295 -299 0
-295 -300 0
-295 -301 0
-296 -297 0
-296 -298 0
-296 -299 0
-296 -300 0
-296 -301 0
-297 -298 0
-297 -299 0
-297 -300 0
-297 -301 0
-298 -299 0
-298 -300 0
-298 -301 0
-299 -300 0
-299 -301 0
-300 -301 0
-302 -303 0
-302 -304 0
-302 -305 0
-302 -306 0
-302 -307 0
-302 -308 0
-303 -304 0
-303 -305 0
-303 -306 0
-303 -307 0
-303 -308 0
-304 -305 0
-304 -306 0
-304 -307 0
-304 -308 0
-305 -306 0
-305 -307 0
-305 -308 0
-306 -307 0
-306 -308 0
-307 -308 0
-309 -310 0
-309 -311 0
-309 -312 0
-309 -313 0
-309 -314 0
-309 -315 0
-310 -311 0
-310 -312 0
-310 -313 0
-310 -314 0
-310 -315 0
-311 -312 0
-311 -313 0
-311 -314 0
-311 -315 0
-312 -313 0
-312 -314 0
-312 -315 0
-313 -314 0
-313 -315 0
-314 -315 0
-316 -317 0
-316 -318 0
-316 -319 0
-316 -320 0
-316 -321 0
-316 -322 0
-317 -318 0
-317 -319 0
-317 -320 0
-317 -321 0
-317 -322 0
-318 -319 0
-318 -320 0
-318 -321 0
-318 -322 0
-319 -320 0
-319 -321 0
-319 -322 0
-320 -321 0
-320 -322 0
-321 -322 0
-323 -324 0
-323 -325 0
-323 -326 0
-323 -327 0
-323 -328 0
-323 -329 0
-324 -325 0
-324 -326 0
-324 -327 0
-324 -328 0
-324 -329 0
-325 -326 0
-325 -327 0
-325 -328 0
-325 -329 0
-326 -327 0
-326 -328 0
-326 -329 0
-327 -328 0
-327 -329 0
-328 -329 0
-330 -331 0
-330 -332 0
-330 -333 0
-330 -334 0
-330 -335 0
-330 -336 0
-331 -332 0
-331 -333 0
-331 -334 0
-331 -335 0
-331 -336 0
-332 -333 0
-332 -334 0
-332 -335 0
-332 -336 0
-333 -334 0
-333 -335 0
-333 -336 0
-334 -335 0
-334 -336 0
-335 -336 0
-337 -338 0
-337 -339 0
-337 -340 0
-337 -341 0
-337 -342 0
-337 -343 0
-338 -339 0
-338 -340 0
-338 -341 0
-338 -342 0
-338 -343 0
-339 -340 0
-339 -341 0
-339 -342 0
-339 -343 0
-340 -341 0
-340 -342 0
-340 -343 0
-341 -342 0
-341 -343 0
-342 -343 0
-344 -345 0
-344 -346 0
-344 -347 0
-344 -348 0
-344 -349 0
-344 -350 0
-345 -346 0
-345 -347 0
-345 -348 0
-345 -349 0
-345 -350 0
-346 -347 0
-346 -348 0
-346 -349 0
-346 -350 0
-347 -348 0
-347 -349 0
-347 -350 0
-348 -349 0
-348 -350 0
-349 -350 0
-1 -53 0
-1 -54 0
-4 -53 0
-4 -50 0
-3 -50 0
-4 -52 0
-7 -54 0
-2 -52 0
-1 -50 0
-3 -55 0
-1 -56 0
-7 -51 0
-2 -56 0
-4 -56 0
-2 -196 0
-4 -194 0
-1 -194 0
-3 -193 0
-7 -195 0
-5 -191 0
-2 -190 0
-7 -194 0
-6 -192 0
-7 -193 0
-2 -192 0
-4 -192 0
-6 -193 0
-1 -190 0
-7 -230 0
-5 -230 0
-5 -226 0
-3 -229 0
-6 -226 0
-3 -230 0
-4 -226 0
-7 -226 0
-2 -230 0
-5 -227 0
-2 -228 0
-6 -230 0
-7 -229 0
-4 -230 0
-1 -249 0
-3 -250 0
-4 -247 0
-7 -247 0
-3 -246 0
-7 -246 0
-3 -249 0
-4 -250 0
-1 -246 0
-2 -251 0
-7 -251 0
-5 -246 0
-4 -248 0
-1 -252 0
-7 -259 0
-1 -258 0
-1 -254 0
-4 -253 0
-7 -256 0
-5 -255 0
-5 -254 0
-3 -259 0
-7 -257 0
-7 -255 0
-1 -259 0
-2 -258 0
-4 -257 0
-4 -258 0
-3 -337 0
-5 -342 0
-1 -341 0
-3 -341 0
-2 -342 0
-7 -340 0
-5 -337 0
-5 -340 0
-4 -341 0
-7 -341 0
-1 -343 0
-2 -343 0
-1 -337 0
-5 -341 0
-12 -36 0
-14 -42 0
-11 -41 0
-11 -37 0
-11 -39 0
-11 -40 0
-10 -37 0
-11 -42 0
-10 -38 0
-10 -41 0
-13 -39 0
-10 -36 0
-13 -38 0
-14 -40 0
-8 -53 0
-13 -51 0
-8 -56 0
-13 -50 0
-10 -55 0
-8 -55 0
-14 -56 0
-14 -52 0
-14 -51 0
-8 -50 0
-11 -56 0
-11 -53 0
-11 -50 0
-12 -50 0
-10 -162 0
-12 -162 0
-11 -168 0
-10 -163 0
-12 -166 0
-13 -167 0
-8 -162 0
-14 -162 0
-12 -168 0
-13 -168 0
-9 -166 0
-10 -166 0
-11 -165 0
-12 -167 0
-13 -339 0
-10 -342 0
-9 -342 0
-9 -337 0
-10 -340 0
-14 -341 0
-12 -339 0
-14 -337 0
-8 -339 0
-14 -342 0
-14 -343 0
-8 -337 0
-11 -340 0
-8 -341 0
-15 -208 0
-21 -210 0
-18 -208 0
-18 -209 0
-15 -204 0
-19 -207 0
-20 -204 0
-20 -207 0
-19 -205 0
-19 -204 0
-20 -206 0
-20 -210 0
-19 -210 0
-15 -206 0
-17 -246 0
-17 -248 0
-21 -249 0
-17 -252 0
-19 -250 0
-20 -249 0
-20 -246 0
-20 -248 0
-20 -250 0
-15 -248 0
-16 -247 0
-15 -252 0
-21 -252 0
-20 -252 0
-19 -323 0
-21 -324 0
-18 -328 0
-21 -325 0
-17 -327 0
-15 -323 0
-16 -325 0
-21 -329 0
-18 -329 0
-17 -329 0
-15 -329 0
-19 -324 0
-20 -325 0
-19 -328 0
-25 -110 0
-23 -112 0
-26 -108 0
-22 -108 0
-25 -111 0
-23 -106 0
-26 -109 0
-26 -111 0
-27 -107 0
-26 -107 0
-24 -106 0
-28 -109 0
-28 -108 0
-27 -111 0
-25 -129 0
-25 -131 0
-28 -131 0
-28 -129 0
-25 -132 0
-27 -133 0
-25 -133 0
-23 -133 0
-27 -129 0
-26 -127 0
-26 -131 0
-24 -129 0
-28 -132 0
-24 -131 0
-27 -158 0
-25 -160 0
-24 -158 0
-28 -156 0
-22 -157 0
-27 -160 0
-24 -159 0
-26 -156 0
-24 -157 0
-28 -157 0
-27 -159 0
-28 -158 0
-22 -156 0
-24 -161 0
-27 -222 0
-24 -218 0
-22 -222 0
-23 -219 0
-24 -224 0
-26 -221 0
-26 -222 0
-28 -223 0
-22 -224 0
-23 -224 0
-27 -223 0
-24 -220 0
-28 -222 0
-28 -224 0
-27 -248 0
-26 -247 0
-22 -249 0
-26 -248 0
-28 -247 0
-24 -246 0
-22 -250 0
-28 -249 0
-25 -248 0
-25 -246 0
-23 -247 0
-25 -250 0
-28 -248 0
-27 -246 0
-22 -272 0
-28 -271 0
-24 -273 0
-27 -270 0
-25 -271 0
-25 -272 0
-27 -269 0
-24 -269 0
-28 -268 0
-24 -271 0
-23 -271 0
-23 -270 0
-23 -268 0
-23 -267 0
-22 -279 0
-25 -277 0
-25 -276 0
-23 -277 0
-26 -278 0
-23 -275 0
-24 -274 0
-24 -277 0
-25 -274 0
-26 -279 0
-24 -280 0
-26 -280 0
-26 -277 0
-26 -275 0
-25 -320 0
-24 -322 0
-28 -316 0
-27 -321 0
-24 -321 0
-26 -319 0
-25 -319 0
-26 -320 0
-24 -320 0
-25 -321 0
-26 -316 0
-24 -316 0
-28 -318 0
-25 -322 0
-22 -330 0
-23 -332 0
-28 -332 0
-22 -332 0
-27 -335 0
-26 -335 0
-23 -331 0
-23 -330 0
-26 -333 0
-28 -334 0
-25 -334 0
-22 -334 0
-26 -336 0
-28 -336 0
-30 -173 0
-34 -169 0
-29 -169 0
-31 -171 0
-35 -170 0
-35 -169 0
-29 -170 0
-34 -171 0
-33 -171 0
-33 -174 0
-29 -172 0
-32 -170 0
-30 -169 0
-29 -175 0
-31 -241 0
-35 -241 0
-32 -241 0
-29 -239 0
-33 -244 0
-35 -239 0
-29 -242 0
-29 -243 0
-32 -239 0
-29 -240 0
-30 -240 0
-35 -245 0
-30 -242 0
-34 -244 0
-30 -290 0
-29 -292 0
-29 -288 0
-32 -292 0
-32 -288 0
-29 -291 0
-30 -294 0
-35 -290 0
-33 -290 0
-31 -291 0
-31 -288 0
-29 -293 0
-34 -292 0
-35 -288 0
-42 -123 0
-39 -125 0
-36 -120 0
-42 -122 0
-41 -124 0
-36 -121 0
-37 -124 0
-39 -120 0
-37 -120 0
-41 -120 0
-40 -122 0
-39 -124 0
-41 -121 0
-36 -126 0
-45 -62 0
-47 -62 0
-49 -63 0
-46 -60 0
-46 -59 0
-43 -63 0
-43 -59 0
-44 -59 0
-45 -59 0
-43 -60 0
-45 -60 0
-48 -57 0
-43 -62 0
-48 -62 0
-49 -69 0
-46 -67 0
-49 -66 0
-46 -69 0
-44 -67 0
-47 -67 0
-45 -64 0
-49 -68 0
-49 -70 0
-48 -69 0
-44 -66 0
-44 -64 0
-45 -68 0
-48 -66 0
-47 -251 0
-45 -252 0
-49 -251 0
-48 -246 0
-44 -249 0
-47 -250 0
-47 -247 0
-43 -248 0
-47 -252 0
-49 -248 0
-44 -246 0
-45 -249 0
-49 -246 0
-46 -249 0
-45 -261 0
-49 -260 0
-44 -260 0
-49 -262 0
-47 -266 0
-48 -260 0
-48 -262 0
-45 -262 0
-46 -262 0
-46 -260 0
-46 -261 0
-43 -261 0
-48 -265 0
-44 -266 0
-55 -205 0
-56 -210 0
-52 -205 0
-54 -209 0
-52 -210 0
-54 -205 0
-55 -207 0
-54 -204 0
-56 -205 0
-54 -208 0
-55 -208 0
-53 -206 0
-56 -208 0
-52 -209 0
-55 -246 0
-51 -252 0
-56 -248 0
-52 -248 0
-53 -252 0
-52 -251 0
-56 -250 0
-53 -248 0
-51 -247 0
-55 -249 0
-51 -249 0
-52 -249 0
-56 -247 0
-51 -250 0
-52 -337 0
-56 -341 0
-52 -338 0
-54 -337 0
-54 -339 0
-52 -340 0
-50 -338 0
-56 -337 0
-56 -339 0
-56 -340 0
-54 -340 0
-54 -343 0
-50 -340 0
-51 -340 0
-61 -148 0
-59 -152 0
-57 -148 0
-57 -152 0
-58 -149 0
-58 -153 0
-58 -151 0
-63 -151 0
-58 -152 0
-61 -151 0
-58 -150 0
-57 -150 0
-63 -148 0
-60 -150 0
-63 -182 0
-59 -179 0
-60 -177 0
-63 -176 0
-60 -180 0
-62 -182 0
-60 -179 0
-58 -181 0
-63 -179 0
-63 -177 0
-59 -180 0
-59 -182 0
-58 -177 0
-59 -181 0
-68 -134 0
-69 -135 0
-64 -136 0
-68 -140 0
-66 -139 0
-69 -140 0
-66 -140 0
-67 -137 0
-65 -135 0
-66 -136 0
-68 -136 0
-68 -137 0
-64 -140 0
-70 -134 0
-68 -275 0
-65 -275 0
-67 -276 0
-68 -280 0
-69 -280 0
-68 -277 0
-64 -274 0
-67 -278 0
-69 -279 0
-66 -279 0
-65 -280 0
-65 -277 0
-70 -280 0
-66 -280 0
-71 -97 0
-74 -98 0
-74 -96 0
-77 -92 0
-74 -92 0
-72 -95 0
-77 -94 0
-76 -92 0
-72 -94 0
-73 -95 0
-71 -93 0
-75 -94 0
-75 -92 0
-75 -98 0
-76 -140 0
-76 -138 0
-76 -135 0
-71 -135 0
-74 -134 0
-73 -135 0
-75 -135 0
-74 -137 0
-76 -136 0
-73 -140 0
-72 -135 0
-76 -139 0
-73 -138 0
-75 -139 0
-72 -214 0
-73 -211 0
-77 -211 0
-75 -211 0
-74 -217 0
-73 -215 0
-72 -215 0
-73 -213 0
-74 -213 0
-73 -212 0
-73 -217 0
-75 -215 0
-75 -217 0
-76 -214 0
-71 -272 0
-77 -267 0
-74 -273 0
-77 -269 0
-72 -271 0
-76 -272 0
-73 -269 0
-71 -268 0
-73 -267 0
-77 -268 0
-71 -267 0
-74 -268 0
-76 -270 0
-77 -273 0
-72 -319 0
-75 -316 0
-76 -319 0
-75 -321 0
-71 -321 0
-71 -322 0
-76 -317 0
-74 -318 0
-74 -316 0
-76 -318 0
-75 -319 0
-77 -318 0
-77 -321 0
-75 -322 0
-78 -92 0
-81 -94 0
-80 -93 0
-82 -92 0
-81 -92 0
-79 -98 0
-80 -95 0
-84 -96 0
-78 -94 0
-84 -95 0
-83 -96 0
-83 -95 0
-81 -97 0
-81 -98 0
-84 -163 0
-78 -168 0
-82 -168 0
-80 -168 0
-80 -164 0
-83 -163 0
-84 -168 0
-83 -167 0
-78 -164 0
-81 -165 0
-83 -165 0
-78 -163 0
-83 -162 0
-79 -165 0
-90 -153 0
-89 -153 0
-88 -153 0
-85 -150 0
-88 -152 0
-86 -151 0
-85 -151 0
-88 -149 0
-90 -150 0
-89 -149 0
-88 -154 0
-86 -153 0
-85 -148 0
-85 -153 0
-87 -246 0
-85 -252 0
-91 -247 0
-90 -249 0
-89 -249 0
-89 -250 0
-85 -251 0
-88 -250 0
-88 -251 0
-90 -248 0
-89 -251 0
-89 -252 0
-87 -252 0
-90 -247 0
-87 -256 0
-91 -259 0
-89 -255 0
-89 -256 0
-91 -253 0
-88 -253 0
-88 -254 0
-89 -254 0
-87 -257 0
-88 -255 0
-86 -255 0
-88 -259 0
-85 -259 0
-91 -256 0
-86 -296 0
-87 -296 0
-90 -296 0
-87 -298 0
-87 -297 0
-85 -300 0
-91 -297 0
-86 -300 0
-87 -295 0
-85 -297 0
-91 -301 0
-89 -297 0
-86 -299 0
-87 -301 0
-86 -344 0
-91 -349 0
-90 -349 0
-86 -349 0
-90 -344 0
-90 -345 0
-88 -345 0
-89 -346 0
-87 -348 0
-89 -349 0
-90 -347 0
-87 -349 0
-90 -346 0
-86 -346 0
-92 -132 0
-95 -130 0
-97 -130 0
-95 -128 0
-94 -131 0
-92 -131 0
-92 -129 0
-93 -129 0
-95 -127 0
-93 -132 0
-92 -127 0
-94 -128 0
-96 -129 0
-93 -133 0
-98 -158 0
-94 -159 0
-98 -155 0
-96 -157 0
-93 -156 0
-96 -160 0
-97 -156 0
-95 -157 0
-96 -159 0
-93 -158 0
-95 -159 0
-98 -161 0
-97 -159 0
-93 -160 0
-93 -164 0
-98 -162 0
-98 -167 0
-93 -162 0
-94 -163 0
-93 -165 0
-96 -167 0
-93 -166 0
-94 -165 0
-95 -163 0
-92 -167 0
-96 -168 0
-95 -166 0
-98 -164 0
-93 -169 0
-93 -174 0
-94 -170 0
-94 -175 0
-94 -169 0
-94 -171 0
-96 -172 0
-98 -174 0
-97 -175 0
-92 -173 0
-93 -171 0
-98 -170 0
-97 -170 0
-95 -169 0
-97 -221 0
-96 -223 0
-95 -223 0
-93 -219 0
-96 -221 0
-94 -218 0
-96 -218 0
-93 -221 0
-97 -222 0
-94 -221 0
-98 -223 0
-98 -221 0
-94 -220 0
-93 -220 0
-97 -247 0
-96 -251 0
-94 -250 0
-93 -250 0
-98 -246 0
-96 -252 0
-98 -252 0
-97 -252 0
-95 -246 0
-98 -250 0
-93 -246 0
-93 -248 0
-95 -252 0
-92 -252 0
-92 -314 0
-95 -314 0
-97 -312 0
-98 -315 0
-92 -315 0
-96 -314 0
-97 -311 0
-95 -310 0
-97 -313 0
-96 -311 0
-92 -311 0
-93 -312 0
-94 -313 0
-92 -312 0
-94 -333 0
-98 -335 0
-92 -332 0
-96 -331 0
-96 -335 0
-96 -330 0
-92 -331 0
-98 -334 0
-92 -334 0
-97 -335 0
-96 -332 0
-95 -332 0
-97 -331 0
-93 -335 0
-103 -116 0
-99 -117 0
-105 -118 0
-100 -118 0
-102 -115 0
-103 -119 0
-99 -114 0
-104 -116 0
-100 -116 0
-100 -119 0
-104 -115 0
-100 -115 0
-105 -117 0
-101 -117 0
-104 -128 0
-101 -133 0
-105 -131 0
-99 -129 0
-102 -131 0
-103 -127 0
-104 -130 0
-100 -128 0
-103 -130 0
-103 -133 0
-101 -129 0
-104 -131 0
-103 -132 0
-102 -127 0
-101 -143 0
-102 -145 0
-99 -145 0
-103 -146 0
-99 -143 0
-103 -143 0
-99 -144 0
-105 -147 0
-101 -141 0
-102 -144 0
-100 -141 0
-100 -145 0
-99 -141 0
-100 -143 0
-101 -166 0
-99 -162 0
-102 -167 0
-105 -167 0
-99 -164 0
-103 -166 0
-103 -163 0
-104 -166 0
-104 -164 0
-101 -165 0
-105 -163 0
-103 -167 0
-103 -162 0
-103 -168 0
-101 -211 0
-104 -214 0
-103 -215 0
-100 -211 0
-99 -215 0
-100 -214 0
-101 -217 0
-104 -215 0
-99 -211 0
-99 -217 0
-102 -215 0
-100 -215 0
-105 -215 0
-104 -212 0
-99 -276 0
-102 -280 0
-100 -276 0
-100 -278 0
-100 -277 0
-105 -274 0
-104 -274 0
-104 -280 0
-99 -277 0
-103 -274 0
-103 -278 0
-105 -279 0
-100 -274 0
-104 -277 0
-101 -305 0
-104 -305 0
-103 -304 0
-102 -308 0
-99 -308 0
-101 -303 0
-103 -303 0
-105 -305 0
-99 -304 0
-104 -304 0
-100 -304 0
-103 -306 0
-100 -302 0
-103 -302 0
-107 -121 0
-111 -124 0
-107 -126 0
-110 -125 0
-106 -126 0
-108 -126 0
-112 -120 0
-110 -126 0
-106 -125 0
-111 -122 0
-111 -123 0
-107 -120 0
-110 -124 0
-111 -121 0
-110 -215 0
-109 -217 0
-108 -217 0
-106 -216 0
-112 -217 0
-112 -216 0
-109 -216 0
-110 -213 0
-111 -215 0
-110 -214 0
-109 -214 0
-110 -217 0
-107 -217 0
-106 -215 0
-116 -128 0
-114 -128 0
-115 -129 0
-118 -132 0
-118 -128 0
-113 -127 0
-114 -129 0
-113 -132 0
-116 -130 0
-117 -127 0
-119 -133 0
-115 -132 0
-113 -129 0
-114 -131 0
-117 -175 0
-116 -171 0
-115 -175 0
-113 -172 0
-114 -172 0
-115 -169 0
-118 -170 0
-116 -173 0
-116 -175 0
-119 -175 0
-115 -172 0
-117 -173 0
-119 -172 0
-113 -173 0
-119 -302 0
-115 -303 0
-116 -308 0
-118 -302 0
-118 -306 0
-117 -306 0
-114 -307 0
-116 -303 0
-114 -305 0
-119 -303 0
-118 -303 0
-119 -305 0
-115 -306 0
-118 -308 0
-119 -328 0
-119 -323 0
-116 -329 0
-114 -329 0
-114 -328 0
-114 -324 0
-115 -329 0
-117 -327 0
-114 -325 0
-116 -325 0
-113 -326 0
-116 -328 0
-113 -328 0
-113 -329 0
-124 -214 0
-122 -213 0
-124 -217 0
-126 -216 0
-124 -216 0
-120 -215 0
-121 -216 0
-123 -212 0
-123 -215 0
-125 -215 0
-124 -213 0
-121 -212 0
-125 -217 0
-125 -214 0
-124 -230 0
-120 -227 0
-125 -231 0
-123 -225 0
-122 -225 0
-126 -225 0
-126 -228 0
-122 -228 0
-126 -231 0
-124 -228 0
-120 -229 0
-126 -226 0
-123 -227 0
-121 -229 0
-122 -302 0
-123 -305 0
-125 -302 0
-124 -305 0
-122 -306 0
-126 -306 0
-126 -303 0
-120 -306 0
-125 -305 0
-120 -308 0
-125 -307 0
-126 -308 0
-123 -304 0
-124 -306 0
-128 -151 0
-131 -153 0
-133 -152 0
-133 -148 0
-127 -148 0
-133 -149 0
-132 -149 0
-127 -154 0
-131 -148 0
-133 -151 0
-127 -152 0
-129 -148 0
-130 -153 0
-131 -154 0
-129 -191 0
-133 -190 0
-127 -194 0
-128 -195 0
-129 -193 0
-127 -195 0
-127 -190 0
-133 -196 0
-133 -195 0
-128 -196 0
-127 -193 0
-131 -195 0
-132 -190 0
-127 -191 0
-129 -299 0
-128 -297 0
-127 -301 0
-128 -301 0
-133 -301 0
-128 -299 0
-131 -297 0
-132 -300 0
-131 -299 0
-133 -300 0
-132 -299 0
-130 -296 0
-130 -298 0
-128 -295 0
-127 -324 0
-133 -326 0
-128 -327 0
-133 -325 0
-133 -327 0
-129 -325 0
-129 -328 0
-127 -325 0
-132 -325 0
-131 -323 0
-127 -329 0
-128 -325 0
-131 -328 0
-131 -326 0
-136 -204 0
-138 -207 0
-139 -204 0
-136 -209 0
-137 -204 0
-137 -208 0
-136 -206 0
-138 -204 0
-139 -207 0
-138 -206 0
-134 -209 0
-137 -207 0
-140 -208 0
-138 -208 0
-136 -247 0
-134 -249 0
-136 -250 0
-139 -248 0
-140 -250 0
-138 -248 0
-135 -248 0
-136 -248 0
-137 -247 0
-140 -252 0
-140 -249 0
-138 -250 0
-138 -246 0
-139 -250 0
-144 -229 0
-146 -229 0
-142 -227 0
-145 -231 0
-143 -225 0
-143 -227 0
-146 -226 0
-145 -228 0
-143 -229 0
-145 -227 0
-141 -227 0
-144 -227 0
-144 -225 0
-141 -231 0
-147 -284 0
-145 -282 0
-143 -286 0
-144 -283 0
-147 -285 0
-143 -285 0
-141 -285 0
-144 -285 0
-142 -287 0
-142 -282 0
-145 -286 0
-141 -284 0
-145 -287 0
-142 -281 0
-146 -314 0
-143 -312 0
-145 -313 0
-147 -312 0
-147 -314 0
-145 -315 0
-145 -310 0
-142 -312 0
-144 -314 0
-144 -313 0
-144 -309 0
-145 -312 0
-143 -311 0
-147 -309 0
-145 -324 0
-146 -328 0
-145 -325 0
-144 -323 0
-145 -328 0
-141 -324 0
-143 -326 0
-145 -329 0
-143 -327 0
-143 -323 0
-144 -329 0
-142 -326 0
-142 -325 0
-143 -324 0
-144 -337 0
-147 -343 0
-144 -338 0
-143 -340 0
-146 -342 0
-145 -337 0
-142 -341 0
-141 -340 0
-146 -340 0
-142 -339 0
-142 -338 0
-143 -341 0
-141 -338 0
-145 -339 0
-142 -345 0
-142 -348 0
-146 -348 0
-142 -347 0
-142 -346 0
-147 -347 0
-146 -345 0
-141 -348 0
-141 -344 0
-141 -349 0
-142 -349 0
-143 -347 0
-146 -346 0
-145 -350 0
-152 -349 0
-148 -347 0
-154 -346 0
-148 -348 0
-148 -344 0
-154 -348 0
-152 -345 0
-151 -346 0
-151 -350 0
-150 -344 0
-149 -348 0
-151 -347 0
-148 -350 0
-152 -347 0
-155 -199 0
-157 -201 0
-161 -197 0
-159 -197 0
-156 -200 0
-157 -198 0
-161 -198 0
-161 -202 0
-160 -201 0
-159 -202 0
-160 -203 0
-155 -198 0
-156 -198 0
-161 -199 0
-165 -293 0
-162 -292 0
-168 -290 0
-162 -294 0
-165 -291 0
-168 -292 0
-164 -291 0
-168 -288 0
-167 -289 0
-165 -290 0
-166 -292 0
-165 -294 0
-163 -289 0
-168 -291 0
-168 -335 0
-162 -332 0
-168 -336 0
-163 -333 0
-162 -334 0
-165 -332 0
-165 -333 0
-166 -336 0
-163 -332 0
-168 -332 0
-164 -332 0
-165 -334 0
-164 -336 0
-167 -333 0
-167 -339 0
-168 -339 0
-167 -342 0
-166 -337 0
-162 -341 0
-162 -340 0
-168 -342 0
-166 -343 0
-168 -340 0
-164 -342 0
-168 -337 0
-162 -337 0
-166 -339 0
-162 -339 0
-172 -184 0
-175 -186 0
-171 -184 0
-175 -188 0
-175 -183 0
-170 -185 0
-173 -187 0
-169 -187 0
-173 -189 0
-171 -185 0
-169 -184 0
-172 -186 0
-172 -187 0
-175 -189 0
-169 -206 0
-170 -208 0
-169 -205 0
-174 -204 0
-169 -207 0
-170 -207 0
-174 -210 0
-175 -204 0
-173 -207 0
-170 -205 0
-175 -206 0
-172 -206 0
-171 -207 0
-171 -208 0
-174 -299 0
-169 -299 0
-170 -301 0
-174 -300 0
-171 -300 0
-172 -296 0
-169 -300 0
-170 -300 0
-175 -299 0
-170 -295 0
-174 -295 0
-172 -299 0
-171 -299 0
-171 -298 0
-173 -324 0
-171 -323 0
-169 -328 0
-173 -328 0
-173 -325 0
-174 -328 0
-173 -323 0
-175 -326 0
-171 -325 0
-170 -324 0
-169 -323 0
-170 -328 0
-172 -329 0
-175 -327 0
-182 -240 0
-182 -244 0
-177 -244 0
-179 -243 0
-179 -240 0
-181 -242 0
-178 -242 0
-181 -239 0
-178 -243 0
-180 -240 0
-182 -245 0
-178 -244 0
-176 -245 0
-179 -239 0
-188 -270 0
-189 -271 0
-186 -268 0
-187 -267 0
-183 -267 0
-189 -270 0
-188 -268 0
-184 -271 0
-188 -273 0
-185 -267 0
-189 -269 0
-186 -271 0
-185 -270 0
-187 -268 0
-186 -326 0
-189 -327 0
-189 -326 0
-189 -328 0
-186 -328 0
-188 -328 0
-188 -329 0
-184 -325 0
-186 -323 0
-184 -324 0
-185 -327 0
-187 -327 0
-186 -327 0
-187 -324 0
-185 -330 0
-183 -334 0
-187 -333 0
-186 -332 0
-184 -335 0
-189 -335 0
-186 -331 0
-185 -335 0
-187 -331 0
-183 -336 0
-189 -333 0
-187 -334 0
-187 -332 0
-188 -332 0
-195 -272 0
-196 -267 0
-190 -271 0
-190 -267 0
-193 -271 0
-192 -273 0
-196 -272 0
-195 -271 0
-190 -270 0
-191 -269 0
-196 -270 0
-195 -273 0
-192 -269 0
-192 -272 0
-196 -291 0
-194 -291 0
-195 -291 0
-192 -292 0
-196 -290 0
-194 -288 0
-191 -292 0
-194 -292 0
-191 -289 0
-192 -293 0
-193 -294 0
-190 -292 0
-190 -290 0
-195 -292 0
-206 -218 0
-205 -218 0
-209 -224 0
-209 -220 0
-204 -223 0
-208 -223 0
-208 -219 0
-205 -223 0
-207 -220 0
-210 -222 0
-206 -219 0
-208 -221 0
-206 -223 0
-205 -220 0
-204 -225 0
-208 -228 0
-210 -226 0
-206 -228 0
-206 -225 0
-205 -230 0
-206 -230 0
-204 -230 0
-205 -231 0
-206 -231 0
-209 -227 0
-204 -231 0
-208 -225 0
-204 -228 0
-206 -262 0
-208 -260 0
-209 -264 0
-208 -261 0
-207 -261 0
-205 -263 0
-207 -263 0
-210 -263 0
-206 -260 0
-210 -264 0
-206 -264 0
-204 -263 0
-205 -260 0
-210 -262 0
-204 -305 0
-210 -305 0
-207 -305 0
-207 -303 0
-209 -304 0
-208 -308 0
-210 -307 0
-205 -306 0
-209 -306 0
-208 -303 0
-208 -306 0
-206 -303 0
-207 -302 0
-205 -304 0
-214 -291 0
-215 -292 0
-216 -291 0
-211 -290 0
-213 -294 0
-214 -293 0
-215 -289 0
-211 -292 0
-216 -293 0
-211 -291 0
-217 -290 0
-216 -294 0
-217 -288 0
-214 -289 0
-222 -311 0
-221 -309 0
-219 -310 0
-224 -310 0
-224 -314 0
-219 -313 0
-221 -315 0
-219 -312 0
-223 -311 0
-221 -314 0
-218 -314 0
-219 -315 0
-222 -309 0
-221 -310 0
-229 -239 0
-227 -245 0
-228 -242 0
-226 -240 0
-226 -242 0
-226 -239 0
-226 -241 0
-227 -243 0
-231 -241 0
-228 -239 0
-229 -244 0
-228 -243 0
-229 -245 0
-229 -241 0
-235 -298 0
-238 -300 0
-235 -296 0
-236 -299 0
-238 -299 0
-237 -298 0
-234 -296 0
-237 -301 0
-232 -296 0
-232 -301 0
-232 -295 0
-237 -297 0
-233 -301 0
-237 -300 0
-238 -310 0
-238 -309 0
-235 -314 0
-236 -309 0
-232 -312 0
-233 -314 0
-233 -312 0
-236 -312 0
-235 -313 0
-235 -315 0
-234 -313 0
-234 -315 0
-232 -313 0
-236 -311 0
-248 -341 0
-250 -343 0
-252 -341 0
-246 -339 0
-248 -342 0
-246 -340 0
-249 -342 0
-252 -339 0
-249 -338 0
-251 -338 0
-250 -341 0
-251 -341 0
-247 -337 0
-248 -337 0
-255 -279 0
-259 -274 0
-253 -279 0
-254 -279 0
-258 -280 0
-256 -274 0
-257 -276 0
-259 -279 0
-257 -274 0
-259 -275 0
-254 -280 0
-259 -277 0
-255 -276 0
-254 -277 0
-255 -297 0
-259 -298 0
-253 -298 0
-253 -296 0
-259 -300 0
-258 -295 0
-256 -297 0
-254 -297 0
-259 -296 0
-258 -296 0
-256 -300 0
-257 -301 0
-259 -297 0
-256 -301 0
-254 -334 0
-259 -335 0
-258 -335 0
-257 -330 0
-255 -334 0
-257 -334 0
-259 -336 0
-253 -330 0
-257 -333 0
-256 -334 0
-253 -331 0
-258 -333 0
-257 -331 0
-255 -336 0
-260 -297 0
-260 -298 0
-266 -296 0
-264 -299 0
-262 -298 0
-260 -295 0
-262 -295 0
-266 -297 0
-260 -300 0
-260 -301 0
-265 -295 0
-262 -296 0
-260 -296 0
-264 -300 0
-264 -327 0
-260 -323 0
-263 -325 0
-265 -324 0
-264 -328 0
-265 -323 0
-262 -323 0
-261 -329 0
-260 -326 0
-263 -323 0
-263 -329 0
-261 -323 0
-263 -328 0
-264 -329 0
-268 -341 0
-267 -343 0
-270 -342 0
-270 -341 0
-267 -337 0
-268 -343 0
-267 -338 0
-271 -339 0
-269 -339 0
-272 -337 0
-267 -340 0
-271 -341 0
-271 -338 0
-270 -343 0
-279 -346 0
-280 -346 0
-277 -345 0
-277 -344 0
-280 -348 0
-276 -350 0
-274 -345 0
-276 -349 0
-276 -345 0
-274 -348 0
-275 -350 0
-280 -349 0
-277 -346 0
-279 -347 0
-295 -307 0
-295 -303 0
-297 -305 0
-299 -305 0
-298 -305 0
-300 -305 0
-299 -303 0
-301 -308 0
-299 -306 0
-299 -304 0
-297 -304 0
-300 -302 0
-297 -308 0
-300 -306 0
-304 -349 0
-303 -349 0
-307 -347 0
-304 -346 0
-304 -350 0
-306 -346 0
-306 -344 0
-308 -349 0
-305 -346 0
-302 -346 0
-305 -345 0
-306 -350 0
-308 -347 0
-302 -350 0
-313 -319 0
-313 -318 0
-309 -319 0
-313 -322 0
-310 -318 0
-314 -320 0
-315 -322 0
-313 -321 0
-315 -316 0
-309 -322 0
-309 -316 0
-315 -319 0
-312 -317 0
-315 -321 0
-310 -343 0
-309 -341 0
-312 -338 0
-311 -342 0
-310 -341 0
-311 -343 0
-315 -342 0
-310 -340 0
-309 -343 0
-313 -339 0
-310 -339 0
-314 -342 0
-311 -338 0
-315 -337 0
-320 -329 0
-322 -323 0
-320 -326 0
-322 -324 0
-319 -328 0
-319 -326 0
-316 -324 0
-321 -325 0
-320 -323 0
-322 -327 0
-321 -327 0
-319 -327 0
-316 -325 0
-316 -326 0
